366,635
1011,406
751,850
512,283
382,818
727,264
927,67
626,577
580,719
923,230
1041,46
808,533
448,639
765,939
755,634
927,745
441,406
505,164
649,613
561,406
727,702
633,441
504,378
628,379
1191,406
601,366
858,434
808,533
912,-48
742,21
681,886
267,471
695,494
704,554
596,433
